sat
(:max-memory         18.62
 :memory             18.42
 :nlsat-arith-var    3
 :nlsat-atoms        13
 :nlsat-bool-var     1
 :nlsat-clauses      13
 :nlsat-propagations 13
 :nlsat-stages       4
 :num-allocs         82550
 :rlimit-count       7441
 :time               0.01
 :total-time         0.01)
